
Gurobi 10.0.1 (linux64) logging started Sun Nov 26 16:34:12 2023

Set parameter LogFile to value "ArtificialInstance/ExperimentV2/S4T4K2/BaDo/gurobi91.txt"
Gurobi Optimizer version 10.0.1 build v10.0.1rc0 (linux64)

CPU model: AMD EPYC 7H12 64-Core Processor, instruction set [SSE2|AVX|AVX2]
Thread count: 128 physical cores, 128 logical processors, using up to 32 threads

Academic license 656792 - for non-commercial use only - registered to b.___@student.vu.nl
Optimize a model with 630 rows, 1040 columns and 3360 nonzeros
Model fingerprint: 0x689457bf
Variable types: 0 continuous, 1040 integer (1040 binary)
Coefficient statistics:
  Matrix range     [1e+00, 1e+00]
  Objective range  [2e+00, 2e+01]
  Bounds range     [1e+00, 1e+00]
  RHS range        [1e+00, 1e+00]
Found heuristic solution: objective 496.9451802
Presolve time: 0.01s
Presolved: 630 rows, 1040 columns, 3360 nonzeros
Variable types: 0 continuous, 1040 integer (1040 binary)

Root relaxation: objective 3.460433e+01, 495 iterations, 0.01 seconds (0.00 work units)

    Nodes    |    Current Node    |     Objective Bounds      |     Work
 Expl Unexpl |  Obj  Depth IntInf | Incumbent    BestBd   Gap | It/Node Time

     0     0   34.60433    0  112  496.94518   34.60433  93.0%     -    0s
H    0     0                     241.2696457   34.60433  85.7%     -    0s
H    0     0                     118.9435459   34.60433  70.9%     -    0s
H    0     0                      60.1577545   34.60433  42.5%     -    0s
     0     0   40.21499    0  115   60.15775   40.21499  33.2%     -    0s
H    0     0                      57.7272811   40.21499  30.3%     -    0s
H    0     0                      53.2198349   43.19826  18.8%     -    0s
H    0     0                      52.4785853   43.19826  17.7%     -    0s
     0     0   43.19826    0  160   52.47859   43.19826  17.7%     -    0s
     0     0   44.31677    0  190   52.47859   44.31677  15.6%     -    0s
H    0     0                      50.3894876   44.31677  12.1%     -    0s
     0     0   44.37828    0  214   50.38949   44.37828  11.9%     -    0s
     0     0   46.25800    0  188   50.38949   46.25800  8.20%     -    0s
     0     0   46.25800    0  111   50.38949   46.25800  8.20%     -    0s
     0     0   46.25800    0  178   50.38949   46.25800  8.20%     -    0s
     0     0   46.25800    0  166   50.38949   46.25800  8.20%     -    0s
     0     0   46.25800    0  187   50.38949   46.25800  8.20%     -    0s
     0     0   46.26893    0  174   50.38949   46.26893  8.18%     -    0s
     0     0   47.24898    0  203   50.38949   47.24898  6.23%     -    0s
     0     0   47.25189    0  208   50.38949   47.25189  6.23%     -    0s
     0     0   48.62186    0  194   50.38949   48.62186  3.51%     -    0s
     0     0   49.00593    0  202   50.38949   49.00593  2.75%     -    0s
     0     0   49.25304    0  205   50.38949   49.25304  2.26%     -    0s
     0     0   50.24390    0  170   50.38949   50.24390  0.29%     -    0s
     0     0   50.38949    0  178   50.38949   50.38949  0.00%     -    0s

Cutting planes:
  Gomory: 3
  MIR: 2
  Zero half: 36
  RLT: 8

Explored 1 nodes (2898 simplex iterations) in 0.31 seconds (0.13 work units)
Thread count was 32 (of 128 available processors)

Solution count 8: 50.3895 52.4786 53.2198 ... 496.945

Optimal solution found (tolerance 1.00e-04)
Best objective 5.038948758832e+01, best bound 5.038948758832e+01, gap 0.0000%
